LAMMPS (22 Jul 2025 - Update 3)
OMP_NUM_THREADS environment is not set. Defaulting to 1 thread.
  using 1 OpenMP thread(s) per MPI task
# 3d Lennard-Jones melt

variable	x index 1
variable	y index 1
variable	z index 1

variable	xx equal 20*$x
variable	xx equal 20*1
variable	yy equal 20*$y
variable	yy equal 20*1
variable	zz equal 20*$z
variable	zz equal 20*1

units		lj
atom_style	atomic

lattice		fcc 0.8442
Lattice spacing in x,y,z = 1.6795962 1.6795962 1.6795962
region		box block 0 ${xx} 0 ${yy} 0 ${zz}
region		box block 0 20 0 ${yy} 0 ${zz}
region		box block 0 20 0 20 0 ${zz}
region		box block 0 20 0 20 0 20
create_box	1 box
Created orthogonal box = (0 0 0) to (33.591924 33.591924 33.591924)
  8 by 4 by 6 MPI processor grid
create_atoms	1 box
Created 32000 atoms
  using lattice units in orthogonal box = (0 0 0) to (33.591924 33.591924 33.591924)
  create_atoms CPU = 0.005 seconds
mass		1 1.0

velocity	all create 1.44 87287 loop geom

pair_style	lj/cut 2.5
pair_coeff	1 1 1.0 1.0 2.5

neighbor	0.3 bin
neigh_modify	delay 0 every 20 check no

fix		1 all nve

run		100000
Generated 0 of 0 mixed pair_coeff terms from geometric mixing rule
Neighbor list info ...
  update: every = 20 steps, delay = 0 steps, check = no
  max neighbors/atom: 2000, page size: 100000
  master list distance cutoff = 2.8
  ghost atom cutoff = 2.8
  binsize = 1.4, bins = 24 24 24
  1 neighbor lists, perpetual/occasional/extra = 1 0 0
  (1) pair lj/cut, perpetual
      attributes: half, newton on
      pair build: half/bin/atomonly/newton
      stencil: half/bin/3d
      bin: standard
Per MPI rank memory allocation (min/avg/max) = 2.605 | 2.608 | 2.614 Mbytes
   Step          Temp          E_pair         E_mol          TotEng         Press     
         0   1.44          -6.7733681      0             -4.6134356     -5.0197073    
    100000   0.69136689    -5.6696909      0             -4.6326729      0.72945576   
Loop time of 19.4789 on 192 procs for 100000 steps with 32000 atoms

Performance: 2217788.721 tau/day, 5133.770 timesteps/s, 164.281 Matom-step/s
99.4% CPU use with 192 MPI tasks x 1 OpenMP threads

MPI task timing breakdown:
Section |  min time  |  avg time  |  max time  |%varavg| %total
---------------------------------------------------------------
Pair    | 7.4026     | 7.9201     | 8.4984     |   8.1 | 40.66
Neigh   | 1.5392     | 1.616      | 1.752      |   3.0 |  8.30
Comm    | 9.0772     | 9.7028     | 10.315     |   8.1 | 49.81
Output  | 0.00091094 | 0.00093105 | 0.0010414  |   0.0 |  0.00
Modify  | 0.14241    | 0.17064    | 0.20711    |   3.2 |  0.88
Other   |            | 0.06832    |            |       |  0.35

Nlocal:        166.667 ave         176 max         156 min
Histogram: 2 7 11 15 42 35 35 20 19 6
Nghost:        1129.89 ave        1155 max        1103 min
Histogram: 3 9 16 25 34 37 32 25 7 4
Neighs:        6251.22 ave        6809 max        5772 min
Histogram: 4 9 26 36 39 33 21 15 7 2

Total # of neighbors = 1200234
Ave neighs/atom = 37.507312
Neighbor list builds = 5000
Dangerous builds not checked
Total wall time: 0:00:19
